benchmarks/regr4.cnf
p cnf 10 5
-3 -4 -5 0
-8 -9 -10 0
3 8 0
4 9 0
5 10 0
