benchmarks/regr4.out
c SaDiCaL SAT Solver
c Copyright (C) 2018 by Armin Biere JKU
c
c Version 00n 481e664a7ffa9a307d3a0dad517daf5dde1989ef
c Compiler Apple clang version 15.0.0 (clang-1500.3.9.4)
c Options gcc -Wall -O3 -DNDEBUG -DNLOG
c proof path 'tests/regr4.prf'
c
c all options have default values
c
c parsing 'tests/regr4.cnf'
c found 'p cnf 10 5' header
c parsed DIMACS in 0.00 seconds
c 
c
c   time      reduced redundant irredundant
c       space  restarts glue   variables
c           level conflicts size remaining
c
c s 0.00 0.0 0.0 0 0 0 0 0.0 0.0 5 9 90%
c s 0.00 0.0 0.0 0 0 0 0 0.0 0.0 5 8 80%
c s 0.00 0.0 0.0 0 0 0 0 0.0 0.0 5 7 70%
c s 0.00 0.0 0.0 0 0 0 0 0.0 0.0 5 6 60%
c 1 0.00 0.0 0.0 0 0 0 0 0.0 0.0 5 6 60%
c
s SATISFIABLE
v 1 2 3 -4 5 6 7 8 9 -10 0
c
c simplifications:             4           0  conflicts/simplification  100%
c reductions:                  0           0  conflicts/reduction       100%
c restarts:                    0           0  conflicts/restart         100%
c conflicts:                   0           0  conflicts/sec               0%
c decisions:                   4        2719  decisions/sec             100%
c propagations:               16         0.0  millions/sec               80%
c
c pure:                        4          50% of look-aheads
c look-ahead:                  8         200% of outer decisions        200%
c pruned:                      0         100% of outer conflicts          0%
c generated reducts:           3           0% satisfiable
c average size:                2          60% of all clauses
c pruning failed:              3         100% per reduct
c filter checks:               5          83% of outer satisfied clauses
c average filtered:          0.0           0% per reduct
c assumed literals:            6         1.2  per filter check
c
c collected clauses:        0.00 MB        0% of allocated clauses        0%
c allocated clauses:        0.00 MB        3% of allocated memory        55%
c maximum heap:             0.00 MB        0% of resident set size       63%
c
c looking:                  0.00 sec       0% of process time
c filtering:                0.00 sec       0% of process time
c pruning:                  0.00 sec       0% of process time
c simplifying:              0.00 sec       0% of process time
c
c resident set size:     1008.00 MB
c total process time:       0.00 sec
